NAME: tsp_394
COMMENT: Random TSP instance
TYPE: TSP
DIMENSION: 50
EDGE_WEIGHT_TYPE: EUC_2D
NODE_COORD_SECTION
1 429 791
2 588 176
3 271 118
4 171 834
5 114 243
6 858 679
7 431 69
8 207 198
9 928 323
10 373 379
11 908 56
12 821 417
13 71 319
14 969 355
15 212 161
16 728 149
17 469 736
18 398 341
19 922 373
20 327 725
21 861 668
22 318 119
23 553 319
24 704 13
25 136 530
26 104 618
27 627 898
28 209 594
29 170 200
30 711 467
31 973 119
32 161 794
33 663 493
34 339 426
35 49 309
36 157 75
37 508 547
38 124 91
39 530 899
40 752 168
41 710 786
42 857 610
43 405 735
44 93 559
45 34 69
46 869 571
47 779 665
48 654 23
49 791 416
50 150 827
